12 32 6 10
18 9 14 3 19 5 2 18 13 12 15 4 17 11 5 20 18 13 4 8 3 11 20 9 19 2 8 13 4 4 17 5 
8.71 9.98 4.37 1.16 2.61 9.77 8.5 15.53 15.04 1.55 14 11.34 8.16 14.61 8.55 3.86 9.97 0.27 4.36 6.62 13.67 8.7 14.45 0.67 15.31 4.62 4.74 13.69 4.32 2.91 4.97 15.68 
10.78 1.45 11.16 6.55 4.83 12.07 10.33 14.88 4.93 4.62 13.75 3.11 14.09 11.7 8.14 7.58 1.05 7.59 9.5 10.69 0.82 2.31 0.76 3.02 8.74 8.84 6.21 4.17 10.7 1.71 4.66 10.87 
9.6 0.15 10.67 6.62 5.44 3.14 11.85 6.16 4.82 1.54 7.51 0.08 8.04 3.8 1.51 2.96 0.52 3.19 10.84 11.32 2.81 9.72 4.82 15.83 4.52 2.53 11.08 10.8 8.52 1.52 15.51 14.18 
0.69 10.22 1.29 8.84 10.61 6.64 13.7 13.63 0.48 2.23 5.74 1.22 15.73 14.55 0.86 3.75 5.33 13.51 13.81 15.04 11.22 9.36 2.51 11.86 12.34 13.27 11.82 11.29 14.22 0.18 2.9 2.68 
3.54 11.28 0.23 12.38 6.76 13.03 10.47 11.91 13.05 4.24 6.23 1.89 13.53 7.46 5.95 10.76 0.01 4.18 11.29 5.17 10.45 5.96 15.01 8.69 4.43 14.4 4.88 13.83 14.01 7.75 3.35 2.53 
10.93 4.78 11.97 15.76 13.93 2.08 15.4 15.15 7.29 13.26 10.19 4.54 7.56 15.6 11.05 13.73 14.91 13.34 3.73 14.88 2.75 2.29 8.62 3.79 10.74 13.71 7.79 4.05 2.86 5.29 12.03 14.78 
8 8 8 8 8 8 8 8 8 8 8 8 8 8 8 8 8 8 8 8 8 8 8 8 8 8 8 8 8 8 8 8 
4.36 6.86 3.78 0.33 15.52 14.98 0.58 12.15 1.04 13.74 14.39 13.47 1.53 11.99 0.63 1.4 1.41 15.68 11.65 2.07 7.81 5.82 13.51 13.97 6.3 12.95 14.81 15.97 2.47 12.94 7.29 1.6 
8.94 1.84 6.54 8.36 8.31 4.69 4.36 5.4 1.63 0.63 1.35 1.03 1.91 4.89 0.59 6.46 15.31 12.9 9.85 15.52 7.46 7.89 10.69 14.04 15.77 15.95 1.66 15.71 11.41 5.73 12.3 6.92 
12 7.08 6.22 4.41 5.35 6.06 2.64 11.4 12.17 9.19 7.49 1.39 9.91 9.59 13.22 11.39 13.92 10.58 1.47 15.57 6.59 4.67 5.95 5.25 9.31 3.91 9.04 14.45 3.46 2.62 12.45 1.07 
11.96 1.48 15.84 11.81 1.89 14.61 2.58 2.15 6.28 15.38 2.92 3.89 15.9 8.3 5.51 15.45 1.55 9.13 5.75 11.5 4.44 12.99 4.56 9.44 0.81 4.21 11.88 4.52 10.86 10.32 3.02 2.84 
7.51 5.28 1.01 11.76 10.59 7.26 7.63 11.93 3.01 3.59 15.75 2.89 14.8 15.18 8.32 14.43 15.07 14.46 5.91 10.85 6.07 1.59 11.41 9.48 11.41 7.76 0.45 6.68 12.6 2.3 9.15 5.36 
1 1 1 1 1 1 1 1 1 1 1 1 1 1 1 1 1 1 1 1 1 1 1 1 1 1 1 1 1 1 1 1 
1 1 1 1 1 1 1 1 1 1 1 1 1 1 1 1 1 1 1 1 1 1 1 1 1 1 1 1 1 1 1 1 
1 1 1 1 1 1 1 1 1 1 1 1 1 1 1 1 1 1 1 1 1 1 1 1 1 1 1 1 1 1 1 1 
1 1 1 1 1 1 1 1 1 1 1 1 1 1 1 1 1 1 1 1 1 1 1 1 1 1 1 1 1 1 1 1 
1 1 1 1 1 1 1 1 1 1 1 1 1 1 1 1 1 1 1 1 1 1 1 1 1 1 1 1 1 1 1 1 
1 1 1 1 1 1 1 1 1 1 1 1 1 1 1 1 1 1 1 1 1 1 1 1 1 1 1 1 1 1 1 1 
1 1 1 1 1 1 1 1 1 1 1 1 1 1 1 1 1 1 1 1 1 1 1 1 1 1 1 1 1 1 1 1 
1 1 1 1 1 1 1 1 1 1 1 1 1 1 1 1 1 1 1 1 1 1 1 1 1 1 1 1 1 1 1 1 
1 1 1 1 1 1 1 1 1 1 1 1 1 1 1 1 1 1 1 1 1 1 1 1 1 1 1 1 1 1 1 1 
1 1 1 1 1 1 1 1 1 1 1 1 1 1 1 1 1 1 1 1 1 1 1 1 1 1 1 1 1 1 1 1 
1 1 1 1 1 1 1 1 1 1 1 1 1 1 1 1 1 1 1 1 1 1 1 1 1 1 1 1 1 1 1 1 
1 1 1 1 1 1 1 1 1 1 1 1 1 1 1 1 1 1 1 1 1 1 1 1 1 1 1 1 1 1 1 1 
0.01 0.01 0.01 0.01 0.01 0.01 0.01 0.01 0.01 0.01 0.01 0.01 0.01 0.01 0.01 0.01 0.01 0.01 0.01 0.01 0.01 0.01 0.01 0.01 0.01 0.01 0.01 0.01 0.01 0.01 0.01 0.01 
0.02 0.02 0.02 0.02 0.02 0.02 0.02 0.02 0.02 0.02 0.02 0.02 0.02 0.02 0.02 0.02 0.02 0.02 0.02 0.02 0.02 0.02 0.02 0.02 0.02 0.02 0.02 0.02 0.02 0.02 0.02 0.02 
0.03 0.03 0.03 0.03 0.03 0.03 0.03 0.03 0.03 0.03 0.03 0.03 0.03 0.03 0.03 0.03 0.03 0.03 0.03 0.03 0.03 0.03 0.03 0.03 0.03 0.03 0.03 0.03 0.03 0.03 0.03 0.03 
0.04 0.04 0.04 0.04 0.04 0.04 0.04 0.04 0.04 0.04 0.04 0.04 0.04 0.04 0.04 0.04 0.04 0.04 0.04 0.04 0.04 0.04 0.04 0.04 0.04 0.04 0.04 0.04 0.04 0.04 0.04 0.04 
0.05 0.05 0.05 0.05 0.05 0.05 0.05 0.05 0.05 0.05 0.05 0.05 0.05 0.05 0.05 0.05 0.05 0.05 0.05 0.05 0.05 0.05 0.05 0.05 0.05 0.05 0.05 0.05 0.05 0.05 0.05 0.05 
0.06 0.06 0.06 0.06 0.06 0.06 0.06 0.06 0.06 0.06 0.06 0.06 0.06 0.06 0.06 0.06 0.06 0.06 0.06 0.06 0.06 0.06 0.06 0.06 0.06 0.06 0.06 0.06 0.06 0.06 0.06 0.06 
0.07 0.07 0.07 0.07 0.07 0.07 0.07 0.07 0.07 0.07 0.07 0.07 0.07 0.07 0.07 0.07 0.07 0.07 0.07 0.07 0.07 0.07 0.07 0.07 0.07 0.07 0.07 0.07 0.07 0.07 0.07 0.07 
0.2 0.2 0.2 0.2 0.2 0.2 0.2 0.2 0.2 0.2 0.2 0.2 0.2 0.2 0.2 0.2 0.2 0.2 0.2 0.2 0.2 0.2 0.2 0.2 0.2 0.2 0.2 0.2 0.2 0.2 0.2 0.2 
0.4 0.4 0.4 0.4 0.4 0.4 0.4 0.4 0.4 0.4 0.4 0.4 0.4 0.4 0.4 0.4 0.4 0.4 0.4 0.4 0.4 0.4 0.4 0.4 0.4 0.4 0.4 0.4 0.4 0.4 0.4 0.4 
0.6 0.6 0.6 0.6 0.6 0.6 0.6 0.6 0.6 0.6 0.6 0.6 0.6 0.6 0.6 0.6 0.6 0.6 0.6 0.6 0.6 0.6 0.6 0.6 0.6 0.6 0.6 0.6 0.6 0.6 0.6 0.6 
0.8 0.8 0.8 0.8 0.8 0.8 0.8 0.8 0.8 0.8 0.8 0.8 0.8 0.8 0.8 0.8 0.8 0.8 0.8 0.8 0.8 0.8 0.8 0.8 0.8 0.8 0.8 0.8 0.8 0.8 0.8 0.8 
1 1 1 1 1 1 1 1 1 1 1 1 1 1 1 1 1 1 1 1 1 1 1 1 1 1 1 1 1 1 1 1 
